100
1000
199
199
198
197
197
196
196
196
196
196
196
196
195
195
195
194
194
194
194
194
193
192
192
192
192
191
190
189
189
188
188
188
188
186
185
184
184
184
183
183
183
182
182
180
180
180
177
177
177
177
177
177
176
176
175
172
172
171
170
170
169
169
169
169
168
168
168
167
166
166
165
164
164
164
163
162
162
161
160
160
160
160
160
160
160
159
159
159
157
157
156
156
155
155
155
153
153
152
151
150
